edges = [{1, 2, 5}, {1, 2, 3, 6}, {2, 3, 4, 7}, {8, 3, 4}, {1, 5, 6, 9}, {2, 5, 6, 7, 10}, {3, 6, 7, 8, 11}, {8, 4, 12, 7}, {9, 10, 13, 5}, {6, 9, 10, 11, 14}, {7, 10, 11, 12, 15}, {8, 16, 11, 12}, {9, 13, 14}, {10, 13, 14, 15}, {16, 11, 14, 15}, {16, 12, 15}];
input = [|7, 1|8, 2|9, 3|6, 4|1, 5|5, 6|14, 7|2, 8|16, 9|10, 10|4, 11|12, 12|15, 13|11, 14|13, 15|];
V = 16;
A = 15;
E = 24;
maxTime = 17

